; CiPR-FTQC proof obligations for case_study_switch_only
; This file asserts the negation of conservative effect bounds.
; A theorem prover/SMT solver should answer unsat.
(set-logic ALL)
(define-fun total_err () Real 16651/50000000)
(define-fun sum_err () Real (+ 1/100000 1/100000 1/100000 1/100000 1/12500 1/200000 0 1/31250 10500000000000001/500000000000000000000 1/31250 10500000000000001/500000000000000000000 6000000000000001/100000000000000000000 0 1/50000000 10500000000000001/500000000000000000000 1/125000 1/200000 1/125000))
(assert (not (>= total_err sum_err)))
(check-sat)
(reset-assertions)
(define-fun total_accept () Real 497460386606647/625000000000000)
(define-fun sum_accept () Real (* 1 1 1 1 1 1 1 9801495006250001/10000000000000000 9801/10000 9801495006250001/10000000000000000 9801/10000 1 1 22/25 9801/10000 1 1 1))
(assert (not (<= total_accept sum_accept)))
(check-sat)
(reset-assertions)
(define-fun total_cycles () Int 111)
(define-fun sum_cycles () Int (+ 2 2 2 2 3 1 0 9 13 9 13 3 0 34 13 2 1 2))
(assert (not (>= total_cycles sum_cycles)))
(check-sat)
(reset-assertions)
(define-fun total_factory_count () Int 1)
(define-fun sum_factory_count () Int (+ 0 0 0 0 0 0 0 0 0 0 0 0 0 1 0 0 0 0))
(assert (not (>= total_factory_count sum_factory_count)))
(check-sat)
(reset-assertions)
(define-fun total_switch_count () Int 10)
(define-fun sum_switch_count () Int (+ 0 0 0 0 0 0 0 2 2 2 2 0 0 0 2 0 0 0))
(assert (not (>= total_switch_count sum_switch_count)))
(check-sat)
(reset-assertions)
(define-fun total_two_qubit_gates () Int 650)
(define-fun sum_two_qubit_gates () Int (+ 0 0 0 0 0 0 0 7 180 7 180 0 0 96 180 0 0 0))
(assert (not (>= total_two_qubit_gates sum_two_qubit_gates)))
(check-sat)
(reset-assertions)
